2396, 0, 0, 98, 0
2397, 0, 1, 80, 2
2398, 0, 2, 42, 3
2399, 0, 3, 62, 1
2400, 1, 0, 58, 2
2401, 1, 1, 82, 0
2402, 1, 2, 75, 3
2403, 1, 3, 91, 1
2404, 2, 0, 70, 2
2405, 2, 1, 59, 3
2406, 2, 2, 57, 0
2407, 2, 3, 79, 1
2408, 3, 0, 94, 2
2409, 3, 1, 93, 0
2410, 3, 2, 61, 3
2411, 3, 3, 93, 1
